0	
793	
800	
221	
673	
628	
479	
48	
647	
733
793	
0	
151	
521	
606	
551	
416	
823	
63	
913
800	
151	
0	
859	
322	
280	
517	
755	
379	
917
221	
521	
859	
0	
388	
987	
301	
510	
300	
772
673	
606	
322	
388	
0	
480	
172	
554	
953	
169
628	
551	
280	
987	
480	
0	
847	
226	
573	
233
479	
416	
517	
301	
172	
847	
0	
313	
328	
7
48	
823	
755	
510	
554	
226	
313	
0	
581	
687
647	
63	
379	
300	
953	
573	
328	
581	
0	
26
733	
913	
917	
772	
169	
233	
7	
687	
26	
0
